DIMENSION: 8
EDGE_WEIGHT_TYPE: EXPLICIT
EDGE_WEIGHT_FORMAT: FULL_MATRIX
EDGE_WEIGHT_SECTION:
32767 59 32767 32767 55 39 51 32767 
59 32767 32767 71 42 50 29 32767 
32767 32767 32767 32767 32767 32767 32767 15 
32767 71 32767 32767 32767 32767 32767 32767 
55 42 32767 32767 32767 35 64 32767 
39 50 32767 32767 35 32767 82 96 
51 29 32767 32767 64 82 32767 32767 
32767 32767 15 32767 32767 96 32767 32767 
EOF